toybox/dimacs_unique/toybox-2016-07-15_04-45-08.dimacs
c 1 CONFIG_DHCPD
c 2 CONFIG_SORT_BIG
c 3 CONFIG_HELP
c 4 CONFIG_START
c 5 CONFIG_TCPSVD
c 6 CONFIG_SYSLOGD
c 7 CONFIG_TAIL
c 8 CONFIG_ID_Z
c 9 CONFIG_TOYBOX_PRLIMIT
c 10 CONFIG_UNSHARE
c 11 CONFIG_EGREP
c 12 CONFIG_TOP_COMMON
c 13 CONFIG_ID
c 14 CONFIG_RESTORECON
c 15 CONFIG_BOOTCHARTD
c 16 CONFIG_HELP_EXTRAS
c 17 CONFIG_KILL
c 18 CONFIG_TOYBOX_ICONV
c 19 CONFIG_LOG
c 20 CONFIG_GZIP
c 21 CONFIG_MKE2FS_EXTENDED
c 22 CONFIG_CP_PRESERVE
c 23 CONFIG_TOYBOX_FIFREEZE
c 24 CONFIG_LS_COLOR
c 25 CONFIG_TOYBOX_MUSL_NOMMU_IS_BROKEN
c 26 CONFIG_MKE2FS_GEN
c 27 CONFIG_PGREP
c 28 CONFIG_TOP
c 29 CONFIG_TOYBOX_SHADOW
c 30 CONFIG_SHA256SUM
c 31 CONFIG_LSPCI
c 32 CONFIG_TOYBOX_FORK
c 33 CONFIG_MKFIFO_Z
c 34 CONFIG_GUNZIP
c 35 CONFIG_SHA224SUM
c 36 CONFIG_TOYBOX_UID_USR
c 37 CONFIG_TOYBOX_CONTAINER
c 38 CONFIG_NETCAT_LISTEN
c 39 CONFIG_MKE2FS_LABEL
c 40 CONFIG_SEQ
c 41 CONFIG_SORT_FLOAT
c 42 CONFIG_DECOMPRESS
c 43 CONFIG_SORT
c 44 CONFIG_SU
c 45 CONFIG_CD
c 46 CONFIG_TIMEOUT
c 47 CONFIG_LOGGER
c 48 CONFIG_SETPROP
c 49 CONFIG_PASSWD_SAD
c 50 CONFIG_GETPROP
c 51 CONFIG_UPTIME
c 52 CONFIG_CRONTAB
c 53 CONFIG_MKDIR
c 54 CONFIG_TOYBOX
c 55 CONFIG_IOTOP
c 56 CONFIG_SLEEP
c 57 CONFIG_TOYBOX_UTMPX
c 58 CONFIG_PGKILL_COMMON
c 59 CONFIG_TOYBOX_FALLOCATE
c 60 CONFIG_MDEV
c 61 CONFIG_KILLALL5
c 62 CONFIG_TOYBOX_HELP_DASHDASH
c 63 __Root__
c 64 CONFIG_LS
c 65 CONFIG_CHCON
c 66 CONFIG_TOYBOX_LIBCRYPTO
c 67 CONFIG_TIME
c 68 CONFIG_W
c 69 CONFIG_KLOGD_SOURCE_RING_BUFFER
c 70 CONFIG_SULOGIN
c 71 CONFIG_FGREP
c 72 CONFIG_SENDEVENT
c 73 CONFIG_MDEV_CONF
c 74 CONFIG_NBD_CLIENT
c 75 CONFIG_LOAD_POLICY
c 76 CONFIG_MKDIR_Z
c 77 CONFIG_SLEEP_FLOAT
c 78 CONFIG_TOYBOX_UID_SYS
c 79 CONFIG_SETENFORCE
c 80 CONFIG_LOGIN
c 81 CONFIG_ULIMIT
c 82 CONFIG_FSFREEZE
c 83 CONFIG_GREP
c 84 CONFIG_MKNOD_Z
c 85 CONFIG_XARGS_PEDANTIC
c 86 CONFIG_WHO
c 87 CONFIG_PKILL
c 88 CONFIG_CP
c 89 CONFIG_TAIL_SEEK
c 90 CONFIG_LSPCI_TEXT
c 91 CONFIG_RUNCON
c 92 CONFIG_TOYBOX_LSM_NONE
c 93 CONFIG_XARGS
c 94 CONFIG_CAT
c 95 CONFIG_TOYBOX_SELINUX
c 96 CONFIG_KLOGD
c 97 CONFIG_MKE2FS
c 98 CONFIG_OPENVT
c 99 CONFIG_GZIP_D
c 100 CONFIG_ICONV
c 101 CONFIG_GETENFORCE
c 102 CONFIG_TOYBOX_FLOAT
c 103 CONFIG_MKNOD
c 104 CONFIG_TOYBOX_HELP
c 105 CONFIG_PASSWD
c 106 CONFIG_FALLOCATE
c 107 CONFIG_ZCAT
c 108 CONFIG_EXIT
c 109 CONFIG_NETCAT
c 110 CONFIG_SHA384SUM
c 111 CONFIG_MKFIFO
c 112 CONFIG_TOYBOX_ON_ANDROID
c 113 CONFIG_TOYBOX_SMACK
c 114 CONFIG_MKE2FS_JOURNAL
c 115 CONFIG_SHA512SUM
c 116 CONFIG_CAT_V
c 117 CONFIG_DEBUG_DHCP
c 118 CONFIG_COMPRESS
c 119 CONFIG_NETCAT_LISTEN_TTY
c 120 CONFIG_STOP
p cnf 120 237
63 0
63 -102 0
-2 63 0
-41 63 0
-43 63 0
-1 63 0
63 -117 0
-27 63 0
-58 63 0
63 -67 0
-32 63 0
-52 63 0
63 -112 0
63 -120 0
63 -92 0
63 -113 0
63 -68 0
-57 63 0
-12 63 0
-5 63 0
63 -97 0
-39 63 0
-59 63 0
-56 63 0
63 -77 0
-8 63 0
-13 63 0
-15 63 0
-28 63 0
63 -84 0
63 -116 0
63 -94 0
-9 63 0
63 -81 0
63 -109 0
-38 63 0
-25 63 0
63 -108 0
63 -72 0
-19 63 0
-42 63 0
63 -99 0
63 -87 0
-29 63 0
63 -105 0
63 -88 0
-22 63 0
-11 63 0
63 -83 0
63 -114 0
63 -73 0
-60 63 0
63 -95 0
63 -79 0
-18 63 0
63 -71 0
63 -119 0
63 -90 0
-31 63 0
63 -70 0
-20 63 0
63 -118 0
-48 63 0
-53 63 0
63 -76 0
63 -111 0
-33 63 0
63 -75 0
-54 63 0
-44 63 0
63 -65 0
63 -115 0
63 -66 0
63 -82 0
-23 63 0
63 -103 0
-21 63 0
63 -100 0
-35 63 0
-7 63 0
63 -89 0
-16 63 0
-3 63 0
63 -86 0
-36 63 0
63 -98 0
-17 63 0
-61 63 0
-26 63 0
-14 63 0
-10 63 0
-37 63 0
63 -64 0
-24 63 0
-51 63 0
63 -106 0
63 -107 0
-46 63 0
63 -104 0
63 -93 0
63 -85 0
-50 63 0
63 -96 0
63 -69 0
-40 63 0
63 -78 0
-62 63 0
63 -74 0
-34 63 0
63 -110 0
63 -80 0
63 -91 0
-47 63 0
-6 63 0
63 -101 0
-49 63 0
-45 63 0
-4 63 0
-30 63 0
-55 63 0
-2 41 -102 0
-2 43 0
1 -117 0
-27 58 0
-67 102 0
32 -52 0
112 -120 0
-92 -113 0
57 -68 0
12 0
-5 32 0
-39 97 0
59 0
56 -77 0
-8 13 0
-15 32 0
12 -28 0
-84 -92 0
94 -116 0
9 -81 0
32 -38 109 0
-25 -32 0
-108 0
-72 112 0
-19 112 0
42 -99 0
58 -87 0
29 -105 0
-22 88 0
58 0
11 -83 0
57 0
97 -114 0
60 -73 0
-79 95 0
18 0
-71 83 0
32 -119 0
31 -90 0
29 -70 0
9 0
-20 118 0
-48 112 0
32 -38 0
53 -76 0
33 92 -111 0
-75 95 0
54 0
71 -83 0
29 -44 0
-65 95 0
-53 76 92 0
66 -115 0
23 -82 0
-84 103 0
-21 97 0
18 -100 0
-35 66 0
38 -119 0
84 92 -103 0
-112 0
7 -89 0
92 95 113 0
3 -16 0
57 -86 0
36 0
32 -98 0
-56 77 -102 0
17 -61 0
-26 97 0
2 -41 0
-92 -95 0
25 32 0
-14 95 0
-10 37 0
-24 64 0
-77 102 0
-11 83 0
23 0
-33 -92 0
-51 57 0
59 -106 0
-16 54 0
-33 111 0
42 -107 0
-46 102 0
20 -99 0
-3 104 0
-76 -92 0
29 0
-85 93 0
-50 112 0
-69 96 0
-40 102 0
8 -13 92 0
78 0
-62 104 0
32 -74 0
-34 42 0
3 -16 54 0
66 -110 0
29 -80 0
-20 -42 99 0
-91 95 0
6 -47 0
95 -101 0
37 0
-32 -38 119 0
-95 -113 0
-49 105 0
-45 0
-4 112 0
-30 66 0
12 -55 0
-8 -92 0
-41 102 0
-38 109 0
